webassembly/ejemplos_dzn/folder6_json_24.dzn
TERM = { '.', 's(2)', 's(4)', 'in_1', 's(1)', 's(0)', 's(3)', 'in_0'};
null = '.';
s = 6;
n = 7;
ndeps = 4;
max_registers_sz = 3;
NR = 0;
registers = [| |];
dependencies = [|'i32.store_0', 'i32.load16_u_2', |'i32.store_0', 'i32.load16_s_3', |'i32.store_0', 'i32.load_4', |'i32.store_0', 'i32.load16_s_5'|];
GET_ENUM = { GET1, GET2, GET3};
SET_ENUM = { SET1, SET2, SET3};
TEE_ENUM = { TEE1, TEE2, TEE3};
N = 6;
OP = { 'i32.store_0', 'i32.const_0', 'i32.load16_u_2', 'i32.load16_s_3', 'i32.load_4', 'i32.load16_s_5' };
in_ops = [2, 0, 1, 1, 1, 1 ];
out_ops = [0, 1, 1, 1, 1, 1 ];
in1 = ['in_0', '.', 's(4)', 's(0)', 's(1)', 's(2)' ];
in2 = ['in_1', '.', '.', '.', '.', '.' ];
in3 = ['.', '.', '.', '.', '.', '.' ];
out1 = ['.', 's(4)', 's(0)', 's(1)', 's(2)', 's(3)' ];
out2 = ['.', '.', '.', '.', '.', '.' ];
out3 = ['.', '.', '.', '.', '.', '.' ];
comm = [false, false, false, false, false, false ];
gas = [1, 1, 1, 1, 1, 1 ];
sz = [1, 1, 1, 1, 1, 1 ];
stor = [true, false, false, false, false, false ];
lb = [ 1, 1, 1, 1, 1, 1 ];
ub = [ 6, 6, 6, 6, 6, 6 ];
startstack = [ 'in_0', 'in_1', null, null, null, null, null ];
endstack = [ 's(3)', null, null, null, null, null, null ];
