webassembly/ejemplos_results/6/folder6_json_24.txt
value = 6;
fgas = [1, 1, 1, 1, 1, 1];
fsize = [1, 1, 1, 1, 1, 1];
states = 
[|   in_0, in_1, '.', '.', '.', '.', '.'
 |    '.',  '.', '.', '.', '.', '.', '.'
 | 's(4)',  '.', '.', '.', '.', '.', '.'
 | 's(0)',  '.', '.', '.', '.', '.', '.'
 | 's(1)',  '.', '.', '.', '.', '.', '.'
 | 's(2)',  '.', '.', '.', '.', '.', '.'
 | 's(3)',  '.', '.', '.', '.', '.', '.'
 |];
register_states = 
[| '.', '.', '.'
 | '.', '.', '.'
 | '.', '.', '.'
 | '.', '.', '.'
 | '.', '.', '.'
 | '.', '.', '.'
 | '.', '.', '.'
 |];
program = [O('i32.store_0'), O('i32.const_0'), O('i32.load16_u_2'), O('i32.load16_s_3'), O('i32.load_4'), O('i32.load16_s_5')];
% time elapsed: 0.11 s
----------
==========
% time elapsed: 0.11 s
% [value > 5]
